SYSTEM = Al fcc primitive

ENCUT  = 500
ISMEAR =  1
SIGMA=0.1
